Route 1: 0 97 80 55 59 36 42 4 87 95 0
Route 2: 0 6 63 51 68 25 52 88 90 82 75 46 0
Route 3: 0 44 41 81 10 31 35 78 67 0
Route 4: 0 60 38 91 99 8 3 18 69 0
Route 5: 0 19 54 72 11 76 1 61 27 100 26 39 0
Route 6: 0 47 9 48 20 7 24 34 0
Route 7: 0 16 84 21 53 49 65 12 40 0
Route 8: 0 57 58 70 79 43 94 85 56 98 64 0
Route 9: 0 30 17 22 74 23 5 29 2 32 33 0
Route 10: 0 15 73 13 96 92 45 14 62 28 89 37 0
Route 11: 0 93 50 71 66 77 83 86 0
